networks/zoo_36_185/zoo_36_185-lower.sol
<?xml version = "1.0" encoding="UTF-8" standalone="yes"?>
<CPLEXSolution version="1.2">
 <header
   problemName="networks/zoo_36_185/zoo_36_185-lower.lp"
   solutionName="incumbent"
   solutionIndex="-1"
   objectiveValue="17"
   solutionTypeValue="3"
   solutionTypeString="primal"
   solutionStatusValue="101"
   solutionStatusString="integer optimal solution"
   solutionMethodString="mip"
   primalFeasible="1"
   dualFeasible="1"
   MIPNodes="0"
   MIPIterations="0"
   writeLevel="3"/>
 <quality
   epInt="1.0000000000000001e-05"
   epRHS="9.9999999999999995e-07"
   maxIntInfeas="0"
   maxPrimalInfeas="0"
   maxX="1"
   maxSlack="1"/>
 <variables>
  <variable name="Y(1,2)" index="1" value="1"/>
  <variable name="Y(2,3)" index="37" value="1"/>
  <variable name="Y(3,4)" index="73" value="1"/>
  <variable name="Y(4,5)" index="109" value="1"/>
  <variable name="Y(5,6)" index="145" value="1"/>
  <variable name="Y(6,7)" index="181" value="1"/>
  <variable name="Y(7,8)" index="217" value="1"/>
  <variable name="Y(8,9)" index="253" value="1"/>
  <variable name="Y(9,10)" index="289" value="1"/>
  <variable name="Y(10,15)" index="329" value="1"/>
  <variable name="Y(11,16)" index="365" value="1"/>
  <variable name="Y(12,18)" index="402" value="1"/>
  <variable name="Y(66,1)" index="2275" value="1"/>
  <variable name="Y(75,11)" index="2600" value="1"/>
  <variable name="Y(76,13)" index="2637" value="1"/>
  <variable name="Y(77,14)" index="2673" value="1"/>
  <variable name="Y(80,17)" index="2781" value="1"/>
  <variable name="X(1,2,1)" index="6475" value="1"/>
  <variable name="X(1,4,2)" index="6661" value="1"/>
  <variable name="X(1,19,66)" index="6910" value="1"/>
  <variable name="X(2,1,66)" index="7095" value="1"/>
  <variable name="X(2,4,13)" index="7227" value="1"/>
  <variable name="X(2,7,4)" index="7403" value="1"/>
  <variable name="X(2,8,7)" index="7591" value="1"/>
  <variable name="X(2,20,1)" index="7770" value="1"/>
  <variable name="X(3,4,24)" index="7978" value="1"/>
  <variable name="X(3,10,25)" index="8164" value="1"/>
  <variable name="X(3,12,10)" index="8334" value="1"/>
  <variable name="X(3,21,2)" index="8511" value="1"/>
  <variable name="X(4,1,82)" index="8776" value="1"/>
  <variable name="X(4,2,28)" index="8907" value="1"/>
  <variable name="X(4,3,2)" index="9066" value="1"/>
  <variable name="X(4,22,3)" index="9252" value="1"/>
  <variable name="X(5,6,5)" index="9439" value="1"/>
  <variable name="X(5,7,36)" index="9655" value="1"/>
  <variable name="X(5,23,4)" index="9808" value="1"/>
  <variable name="X(6,5,47)" index="10036" value="1"/>
  <variable name="X(6,18,42)" index="10216" value="1"/>
  <variable name="X(6,24,5)" index="10364" value="1"/>
  <variable name="X(7,2,36)" index="10580" value="1"/>
  <variable name="X(7,5,4)" index="10733" value="1"/>
  <variable name="X(7,8,41)" index="10955" value="1"/>
  <variable name="X(7,25,6)" index="11105" value="1"/>
  <variable name="X(8,2,66)" index="11350" value="1"/>
  <variable name="X(8,7,25)" index="11494" value="1"/>
  <variable name="X(8,9,8)" index="11662" value="1"/>
  <variable name="X(8,10,9)" index="11848" value="1"/>
  <variable name="X(8,26,7)" index="12031" value="1"/>
  <variable name="X(9,8,66)" index="12275" value="1"/>
  <variable name="X(9,10,48)" index="12442" value="1"/>
  <variable name="X(9,14,75)" index="12654" value="1"/>
  <variable name="X(9,18,11)" index="12775" value="1"/>
  <variable name="X(9,27,8)" index="12957" value="1"/>
  <variable name="X(10,3,48)" index="13182" value="1"/>
  <variable name="X(10,8,25)" index="13344" value="1"/>
  <variable name="X(10,9,27)" index="13531" value="1"/>
  <variable name="X(10,28,9)" index="13698" value="1"/>
  <variable name="X(11,12,95)" index="13969" value="1"/>
  <variable name="X(11,13,99)" index="14158" value="1"/>
  <variable name="X(11,29,75)" index="14319" value="1"/>
  <variable name="X(12,3,95)" index="14524" value="1"/>
  <variable name="X(12,11,91)" index="14705" value="1"/>
  <variable name="X(12,13,10)" index="14809" value="1"/>
  <variable name="X(13,11,75)" index="15059" value="1"/>
  <variable name="X(13,12,121)" index="15290" value="1"/>
  <variable name="X(13,14,99)" index="15453" value="1"/>
  <variable name="X(13,15,10)" index="15549" value="1"/>
  <variable name="X(13,31,76)" index="15800" value="1"/>
  <variable name="X(14,9,99)" index="16008" value="1"/>
  <variable name="X(14,13,75)" index="16169" value="1"/>
  <variable name="X(14,32,77)" index="16356" value="1"/>
  <variable name="X(15,13,138)" index="16602" value="1"/>
  <variable name="X(15,16,105)" index="16754" value="1"/>
  <variable name="X(15,33,10)" index="16844" value="1"/>
  <variable name="X(16,15,44)" index="17063" value="1"/>
  <variable name="X(16,17,80)" index="17284" value="1"/>
  <variable name="X(16,18,141)" index="17530" value="1"/>
  <variable name="X(16,34,11)" index="17585" value="1"/>
  <variable name="X(17,16,162)" index="17921" value="1"/>
  <variable name="X(17,35,80)" index="18024" value="1"/>
  <variable name="X(18,6,71)" index="18200" value="1"/>
  <variable name="X(18,9,42)" index="18356" value="1"/>
  <variable name="X(18,16,11)" index="18510" value="1"/>
  <variable name="X(18,36,12)" index="18696" value="1"/>
 </variables>
</CPLEXSolution>
